c turning on binary mode checking
c parsing input formula with 259840 variables and 1039929 clauses
c finished parsing, read 24286749 bytes from proof file
c detected empty clause; start verification via backward checking
c 24617 of 1039929 clauses in core                            
c 33592 of 621265 lemmas in core using 334669 resolution steps
c 0 RAT lemmas in core; 2814 redundant literals in core lemmas
s VERIFIED
c verification time: 2.853 seconds
